Route #1: 22 46 50 3 40 32
Route #2: 6 56
Route #3: 1 27 18 28 9 55 31
Route #4: 10 17 45 24 52 43 54
Route #5: 4 30 49 35 48 38 12
Route #6: 11 44 13 34 14 33
Route #7: 7 37 16 26 39 19 42
Route #8: 5 47 36 21 41 29 53
Route #9: 8 15 25 51 23 2 20
Cost 1604
Time 0.092786
